32      4       
10      10      10      10      
0       0       0       0       0       6       2       3       4       5       6       7       
3       1       0       1       1       5       8       9       10      11      12      
8       2       1       0       4       4       8       10      11      12      
1       0       5       1       5       3       8       10      11      
7       6       4       0       2       3       9       10      12      
1       5       0       3       3       3       8       11      16      
6       0       3       4       2       3       8       12      16      
3       4       0       4       3       4       13      14      15      17      
4       0       4       8       3       4       13      14      16      17      
7       3       0       2       1       4       14      15      16      20      
7       0       2       4       8       3       13      15      17      
8       0       3       3       2       3       13      14      17      
3       5       8       3       0       6       18      19      20      21      23      24      
4       3       3       0       2       5       19      21      22      23      24      
4       3       0       6       6       4       18      19      21      22      
4       0       5       5       2       4       18      19      22      24      
4       5       6       0       3       3       18      21      24      
9       3       2       1       0       3       25      26      31      
10      3       5       10      0       3       25      26      31      
6       4       0       5       5       3       25      26      31      
2       4       5       0       8       3       25      28      31      
5       7       0       4       5       3       25      28      31      
10      3       2       5       0       3       25      28      31      
3       0       4       3       4       2       25      28      
1       3       3       6       0       3       27      29      30      
9       0       2       4       8       2       27      28      
10      3       5       4       0       1       32      
4       6       8       0       5       1       32      
7       0       4       2       7       1       32      
9       7       4       0       5       1       32      
1       4       4       0       2       1       32      
0       0       0       0       0       0       
